min: c;

c = 3.52263951381611 * u4_t1_h1 + 3.82490010593778 * u4_t1_h2 + 3.7292813159959 * u4_t1_h3 + 3.51259932760719 * u4_t1_h4 + 3.51259932760719 * u4_t10_h4 + 3.20631736021844 * u4_t1_h5 + 3.20631736021844 * u4_t10_h5 + 3.88105264353095 * u4_t1_h6 + 3.88105264353095 * u4_t10_h6 + 4.40760577254821 * u4_t1_h7 + 4.40760577254821 * u4_t10_h7 + 5.27081875554927 * u4_t1_h8 + 5.27081875554927 * u4_t9_h8 + 5.27081875554927 * u4_t10_h8 + 4.95461126850178 * u4_t9_h9 + 4.95461126850178 * u4_t10_h9 + 5.11828694137448 * u4_t9_h10 + 5.11828694137448 * u4_t10_h10 + 3.68607254376929 * u4_t2_h11 + 3.68607254376929 * u4_t4_h11 + 3.68607254376929 * u4_t9_h11 + 3.68607254376929 * u4_t10_h11 + 6.03481384967507 * u4_t2_h12 + 6.03481384967507 * u4_t3_h12 + 6.03481384967507 * u4_t4_h12 + 6.03481384967507 * u4_t8_h12 + 6.03481384967507 * u4_t9_h12 + 6.03481384967507 * u4_t10_h12 + 4.16978087690102 * u4_t2_h13 + 4.16978087690102 * u4_t3_h13 + 4.16978087690102 * u4_t4_h13 + 4.16978087690102 * u4_t8_h13 + 4.16978087690102 * u4_t9_h13 + 5.67001619895027 * u4_t2_h14 + 5.67001619895027 * u4_t3_h14 + 5.67001619895027 * u4_t4_h14 + 5.67001619895027 * u4_t8_h14 + 5.67001619895027 * u4_t9_h14 + 6.38198809458221 * u4_t2_h15 + 6.38198809458221 * u4_t3_h15 + 6.38198809458221 * u4_t4_h15 + 6.38198809458221 * u4_t8_h15 + 6.38198809458221 * u4_t9_h15 + 5.45645431168111 * u4_t2_h16 + 5.45645431168111 * u4_t3_h16 + 5.45645431168111 * u4_t4_h16 + 5.45645431168111 * u4_t5_h16 + 5.45645431168111 * u4_t8_h16 + 5.45645431168111 * u4_t9_h16 + 6.54755212920901 * u4_t2_h17 + 6.54755212920901 * u4_t3_h17 + 6.54755212920901 * u4_t5_h17 + 6.54755212920901 * u4_t8_h17 + 6.54755212920901 * u4_t9_h17 + 6.29481625358662 * u4_t2_h18 + 6.29481625358662 * u4_t3_h18 + 6.29481625358662 * u4_t5_h18 + 6.29481625358662 * u4_t8_h18 + 6.29481625358662 * u4_t9_h18 + 5.48244901478119 * u4_t2_h19 + 5.48244901478119 * u4_t3_h19 + 5.48244901478119 * u4_t6_h19 + 5.48244901478119 * u4_t8_h19 + 5.48244901478119 * u4_t9_h19 + 5.56501508603049 * u4_t2_h20 + 5.56501508603049 * u4_t6_h20 + 5.56501508603049 * u4_t9_h20 + 5.71592868012023 * u4_t6_h21 + 5.93428214835567 * u4_t6_h22 + 5.93428214835567 * u4_t7_h22 + 5.19025364195251 * u4_t6_h23 + 5.19025364195251 * u4_t7_h23;
0 <= u4_t1_h1 <= 1;
0 <= u4_t1_h2 <= 1;
0 <= u4_t1_h3 <= 1;
0 <= u4_t1_h4 <= 1;
0 <= u4_t1_h5 <= 1;
0 <= u4_t1_h6 <= 1;
0 <= u4_t1_h7 <= 1;
0 <= u4_t1_h8 <= 1;
u4_t1_h1 + u4_t1_h2 + u4_t1_h3 + u4_t1_h4 + u4_t1_h5 + u4_t1_h6 + u4_t1_h7 + u4_t1_h8 = 1;
0 <= u4_t2_h11 <= 1;
0 <= u4_t2_h12 <= 1;
0 <= u4_t2_h13 <= 1;
0 <= u4_t2_h14 <= 1;
0 <= u4_t2_h15 <= 1;
0 <= u4_t2_h16 <= 1;
0 <= u4_t2_h17 <= 1;
0 <= u4_t2_h18 <= 1;
0 <= u4_t2_h19 <= 1;
0 <= u4_t2_h20 <= 1;
u4_t2_h11 + u4_t2_h12 + u4_t2_h13 + u4_t2_h14 + u4_t2_h15 + u4_t2_h16 + u4_t2_h17 + u4_t2_h18 + u4_t2_h19 + u4_t2_h20 = 2;
0 <= u4_t3_h12 <= 1;
0 <= u4_t3_h13 <= 1;
0 <= u4_t3_h14 <= 1;
0 <= u4_t3_h15 <= 1;
0 <= u4_t3_h16 <= 1;
0 <= u4_t3_h17 <= 1;
0 <= u4_t3_h18 <= 1;
0 <= u4_t3_h19 <= 1;
u4_t3_h12 + u4_t3_h13 + u4_t3_h14 + u4_t3_h15 + u4_t3_h16 + u4_t3_h17 + u4_t3_h18 + u4_t3_h19 = 3;
0 <= u4_t4_h11 <= 1;
0 <= u4_t4_h12 <= 1;
0 <= u4_t4_h13 <= 1;
0 <= u4_t4_h14 <= 1;
0 <= u4_t4_h15 <= 1;
0 <= u4_t4_h16 <= 1;
u4_t4_h11 + u4_t4_h12 + u4_t4_h13 + u4_t4_h14 + u4_t4_h15 + u4_t4_h16 = 3;
0 <= u4_t5_h16 <= 1;
0 <= u4_t5_h17 <= 1;
0 <= u4_t5_h18 <= 1;
u4_t5_h16 + u4_t5_h17 + u4_t5_h18 = 1;
0 <= u4_t6_h19 <= 1;
0 <= u4_t6_h20 <= 1;
0 <= u4_t6_h21 <= 1;
0 <= u4_t6_h22 <= 1;
0 <= u4_t6_h23 <= 1;
u4_t6_h19 + u4_t6_h20 + u4_t6_h21 + u4_t6_h22 + u4_t6_h23 = 3;
0 <= u4_t7_h22 <= 1;
0 <= u4_t7_h23 <= 1;
u4_t7_h22 + u4_t7_h23 = 1;
0 <= u4_t8_h12 <= 1;
0 <= u4_t8_h13 <= 1;
0 <= u4_t8_h14 <= 1;
0 <= u4_t8_h15 <= 1;
0 <= u4_t8_h16 <= 1;
0 <= u4_t8_h17 <= 1;
0 <= u4_t8_h18 <= 1;
0 <= u4_t8_h19 <= 1;
u4_t8_h12 + u4_t8_h13 + u4_t8_h14 + u4_t8_h15 + u4_t8_h16 + u4_t8_h17 + u4_t8_h18 + u4_t8_h19 = 2;
0 <= u4_t9_h8 <= 1;
0 <= u4_t9_h9 <= 1;
0 <= u4_t9_h10 <= 1;
0 <= u4_t9_h11 <= 1;
0 <= u4_t9_h12 <= 1;
0 <= u4_t9_h13 <= 1;
0 <= u4_t9_h14 <= 1;
0 <= u4_t9_h15 <= 1;
0 <= u4_t9_h16 <= 1;
0 <= u4_t9_h17 <= 1;
0 <= u4_t9_h18 <= 1;
0 <= u4_t9_h19 <= 1;
0 <= u4_t9_h20 <= 1;
u4_t9_h8 + u4_t9_h9 + u4_t9_h10 + u4_t9_h11 + u4_t9_h12 + u4_t9_h13 + u4_t9_h14 + u4_t9_h15 + u4_t9_h16 + u4_t9_h17 + u4_t9_h18 + u4_t9_h19 + u4_t9_h20 = 2;
0 <= u4_t10_h4 <= 1;
0 <= u4_t10_h5 <= 1;
0 <= u4_t10_h6 <= 1;
0 <= u4_t10_h7 <= 1;
0 <= u4_t10_h8 <= 1;
0 <= u4_t10_h9 <= 1;
0 <= u4_t10_h10 <= 1;
0 <= u4_t10_h11 <= 1;
0 <= u4_t10_h12 <= 1;
u4_t10_h4 + u4_t10_h5 + u4_t10_h6 + u4_t10_h7 + u4_t10_h8 + u4_t10_h9 + u4_t10_h10 + u4_t10_h11 + u4_t10_h12 = 2;
